instances/knapsack/discrete_knapsack_uncertainty/knapsack_90_18.lp
\ Model knapsack_90_18
\ LP format - for model browsing. Use MPS format to capture full model detail.
\ Signature: 0xc29ff4c0dcb79651
Minimize
  - 31 x[0] - 83 x[1] - 25 x[2] - 89 x[3] - 30 x[4] - 50 x[5] - 70 x[6]
   - 48 x[7] - 3 x[8] - 59 x[9] - 8 x[10] - 8 x[11] - 32 x[12] - 83 x[13]
   - 100 x[14] - 45 x[15] - 43 x[16] - 3 x[17] - 71 x[18] - 90 x[19]
   - 62 x[20] - 24 x[21] - 61 x[22] - 33 x[23] - 10 x[24] - 95 x[25]
   - 77 x[26] - 44 x[27] - 39 x[28] - 45 x[29] - 78 x[30] - 45 x[31]
   - 57 x[32] - 4 x[33] - 100 x[34] - 42 x[35] - 6 x[36] - 24 x[37]
   - 55 x[38] - 80 x[39] - 65 x[40] - 42 x[41] - 62 x[42] - 72 x[43]
   - 55 x[44] - 16 x[45] - 57 x[46] - 29 x[47] - 89 x[48] - 78 x[49]
   - 48 x[50] - 27 x[51] - 36 x[52] - 82 x[53] - 53 x[54] - 47 x[55]
   - 27 x[56] - 81 x[57] - 49 x[58] - 28 x[59] - 69 x[60] - 11 x[61]
   - 34 x[62] - 54 x[63] - 51 x[64] - 30 x[65] - 90 x[66] - 46 x[67]
   - 13 x[68] - 54 x[69] - 46 x[70] - 56 x[71] - 94 x[72] - 78 x[73]
   - 3 x[74] - 51 x[75] - 99 x[76] - 18 x[77] - 61 x[78] - 100 x[79]
   - 60 x[80] - 51 x[81] - 2 x[82] - 11 x[83] - 94 x[84] - 97 x[85]
   - 43 x[86] - 44 x[87] - 5 x[88] - 43 x[89]
Subject To
 primal_upper: 26 x[0] + 43 x[1] + 29 x[2] + 78 x[3] + 71 x[4] + 64 x[5]
   + 84 x[6] + 82 x[7] + 52 x[8] + 21 x[9] + 38 x[10] + 6 x[11] + 75 x[12]
   + 75 x[13] + 91 x[14] + 31 x[15] + 56 x[16] + 43 x[17] + 4 x[18]
   + 93 x[19] + 72 x[20] + 78 x[21] + 27 x[22] + 9 x[23] + 31 x[24]
   + 75 x[25] + 9 x[26] + 34 x[27] + 76 x[28] + 46 x[29] + 24 x[30]
   + 66 x[31] + 14 x[32] + 20 x[33] + 23 x[34] + 36 x[35] + 83 x[36]
   + 67 x[37] + 27 x[38] + 85 x[39] + 54 x[40] + 44 x[41] + 61 x[42]
   + 84 x[43] + 90 x[44] + 21 x[45] + 24 x[46] + 8 x[47] + 98 x[48]
   + 27 x[49] + 53 x[50] + 23 x[51] + 52 x[52] + 35 x[53] + 55 x[54]
   + 30 x[55] + 96 x[56] + 77 x[57] + 63 x[58] + 85 x[59] + 11 x[60]
   + 29 x[61] + 34 x[62] + 25 x[63] + 46 x[64] + 47 x[65] + 59 x[66]
   + 89 x[67] + 95 x[68] + 100 x[69] + 76 x[70] + 68 x[71] + 45 x[72]
   + 58 x[73] + 54 x[74] + 99 x[75] + 89 x[76] + 14 x[77] + 67 x[78]
   + 93 x[79] + 100 x[80] + 60 x[81] + 69 x[82] + 20 x[83] + 76 x[84]
   + 12 x[85] + 94 x[86] + 83 x[87] + 61 x[88] + 78 x[89] + 2.6 r[0]
   + 4.3 r[1] + 2.9 r[2] + 7.8 r[3] + 7.1 r[4] + 6.4 r[5] + 8.4 r[6]
   + 8.2 r[7] + 5.2 r[8] + 2.1 r[9] + 3.8 r[10] + 0.6 r[11] + 7.5 r[12]
   + 7.5 r[13] + 9.1 r[14] + 3.1 r[15] + 5.6 r[16] + 4.3 r[17] + 0.4 r[18]
   + 9.3 r[19] + 7.2 r[20] + 7.8 r[21] + 2.7 r[22] + 0.9 r[23] + 3.1 r[24]
   + 7.5 r[25] + 0.9 r[26] + 3.4 r[27] + 7.6 r[28] + 4.6 r[29] + 2.4 r[30]
   + 6.6 r[31] + 1.4 r[32] + 2 r[33] + 2.3 r[34] + 3.6 r[35] + 8.3 r[36]
   + 6.7 r[37] + 2.7 r[38] + 8.5 r[39] + 5.4 r[40] + 4.4 r[41] + 6.1 r[42]
   + 8.4 r[43] + 9 r[44] + 2.1 r[45] + 2.4 r[46] + 0.8 r[47] + 9.8 r[48]
   + 2.7 r[49] + 5.3 r[50] + 2.3 r[51] + 5.2 r[52] + 3.5 r[53] + 5.5 r[54]
   + 3 r[55] + 9.6 r[56] + 7.7 r[57] + 6.3 r[58] + 8.5 r[59] + 1.1 r[60]
   + 2.9 r[61] + 3.4 r[62] + 2.5 r[63] + 4.6 r[64] + 4.7 r[65] + 5.9 r[66]
   + 8.9 r[67] + 9.5 r[68] + 10 r[69] + 7.6 r[70] + 6.8 r[71] + 4.5 r[72]
   + 5.8 r[73] + 5.4 r[74] + 9.9 r[75] + 8.9 r[76] + 1.4 r[77] + 6.7 r[78]
   + 9.3 r[79] + 10 r[80] + 6 r[81] + 6.9 r[82] + 2 r[83] + 7.6 r[84]
   + 1.2 r[85] + 9.4 r[86] + 8.3 r[87] + 6.1 r[88] + 7.8 r[89] <= 466
 primal_lower: 2.049565995149827 x[0] + 4.0614342393062 x[1]
   + 4.144620371031122 x[2] + 0.4408323261164454 x[3]
   + 2.80610021882199 x[4] + 4.162097824663557 x[5]
   + 3.852559465409791 x[6] + 0.00490478489526674 x[7]
   + 2.132779092205833 x[8] + 0.1674118274746265 x[9]
   + 2.943210990397451 x[10] + 3.351362147651789 x[11]
   + 2.957447334150793 x[12] + 0.872413187834701 x[13]
   + 3.85193751484381 x[14] + 1.385245244483889 x[15]
   + 0.8400002202142802 x[16] + 1.630114508650805 x[17]
   + 2.869491678776297 x[18] + 1.296264815831818 x[19]
   + 3.281638773911793 x[20] + 2.47270382866665 x[21]
   + 2.007381257086522 x[22] + 3.330948387497196 x[23]
   + 0.4728956598272676 x[24] + 3.018950766572051 x[25]
   + 3.642233387390672 x[26] + 3.566948899615705 x[27]
   + 2.105951537603 x[28] + 2.863292677590086 x[29]
   + 3.351144555545659 x[30] + 1.33646857118998 x[31]
   + 1.823369440478945 x[32] + 1.470233724019675 x[33]
   + 0.2832152004393358 x[34] + 0.825478370912082 x[35]
   + 0.9986727616657447 x[36] + 0.9804051742622079 x[37]
   + 2.95898128956726 x[38] + 3.760321581970377 x[39]
   + 0.7121299361114034 x[40] + 0.6821525498050705 x[41]
   + 1.044723427386071 x[42] + 0.9910067876126375 x[43]
   + 3.945165265454705 x[44] + 1.250113887264768 x[45]
   + 1.505775354824665 x[46] + 1.981069422042291 x[47]
   + 4.330665861951987 x[48] + 3.874995565004742 x[49]
   + 0.7007509457747981 x[50] + 2.797802785737781 x[51]
   + 1.331986201733951 x[52] + 1.271241730267977 x[53]
   + 0.461566074597127 x[54] + 3.054114200207139 x[55]
   + 2.177947649620604 x[56] + 1.469886217265575 x[57]
   + 2.654267515034804 x[58] + 2.941730177096678 x[59]
   + 1.242572733947397 x[60] + 1.469905727334613 x[61]
   + 1.271238152185349 x[62] + 3.518552951625395 x[63]
   + 1.316529988216647 x[64] + 3.216085095752796 x[65]
   + 1.797391064436358 x[66] + 2.080680903310179 x[67]
   + 2.082467333138353 x[68] + 0.6103835762912614 x[69]
   + 0.273047214468253 x[70] + 1.083867445483012 x[71]
   + 3.123084289656648 x[72] + 3.897993511861997 x[73]
   + 2.09789393988723 x[74] + 2.753135529613953 x[75]
   + 3.668143143646925 x[76] + 1.609878235228475 x[77]
   + 0.3705795555458847 x[78] + 0.7550443568384425 x[79]
   + 2.87916642215354 x[80] + 1.315173003161321 x[81]
   + 0.4138710627813979 x[82] + 2.800660853217536 x[83]
   + 2.14157293615092 x[84] + 3.846013516877182 x[85]
   + 2.697768054460839 x[86] + 1.194583125082463 x[87]
   + 2.238148173286841 x[88] + 2.994011192310984 x[89] + 32 u[0] + 32 u[1]
   + 70 u[2] + 23 u[3] + 72 u[4] + 82 u[5] + 37 u[6] + 44 u[7] + 13 u[8]
   + 14 u[9] + 24 u[10] + 23 u[11] + 92 u[12] + 100 u[13] + 33 u[14]
   + 21 u[15] + 45 u[16] + 32 u[17] + u[18] + 34 u[19] + u[20] + 24 u[21]
   + 88 u[22] + 95 u[23] + 37 u[24] + 12 u[25] + 50 u[26] + 64 u[27]
   + 10 u[28] + 27 u[29] + 70 u[30] + 60 u[31] + 64 u[32] + u[33]
   + 80 u[34] + 89 u[35] + 60 u[36] + 93 u[37] + 40 u[38] + 59 u[39]
   + 87 u[40] + 38 u[41] + 30 u[42] + 86 u[43] + 91 u[44] + 23 u[45]
   + 74 u[46] + 34 u[47] + 23 u[48] + 88 u[49] + 19 u[50] + 64 u[51]
   + 81 u[52] + 84 u[53] + 61 u[54] + 20 u[55] + 9 u[56] + 3 u[57]
   + 56 u[58] + 18 u[59] + 73 u[60] + 67 u[61] + 80 u[62] + 91 u[63]
   + 16 u[64] + 36 u[65] + 73 u[66] + 39 u[67] + 76 u[68] + 62 u[69]
   + 26 u[70] + 94 u[71] + 50 u[72] + 51 u[73] + 12 u[74] + 49 u[75]
   + 23 u[76] + 55 u[77] + 29 u[78] + 79 u[79] + 30 u[80] + 18 u[81]
   + 47 u[82] + 58 u[83] + 18 u[84] + 14 u[85] + 52 u[86] + 8 u[87]
   + 90 u[88] + 35 u[89] <= 81274
 mccormick1[0]: - u[0] + r[0] <= 0
 mccormick1[1]: - u[1] + r[1] <= 0
 mccormick1[2]: - u[2] + r[2] <= 0
 mccormick1[3]: - u[3] + r[3] <= 0
 mccormick1[4]: - u[4] + r[4] <= 0
 mccormick1[5]: - u[5] + r[5] <= 0
 mccormick1[6]: - u[6] + r[6] <= 0
 mccormick1[7]: - u[7] + r[7] <= 0
 mccormick1[8]: - u[8] + r[8] <= 0
 mccormick1[9]: - u[9] + r[9] <= 0
 mccormick1[10]: - u[10] + r[10] <= 0
 mccormick1[11]: - u[11] + r[11] <= 0
 mccormick1[12]: - u[12] + r[12] <= 0
 mccormick1[13]: - u[13] + r[13] <= 0
 mccormick1[14]: - u[14] + r[14] <= 0
 mccormick1[15]: - u[15] + r[15] <= 0
 mccormick1[16]: - u[16] + r[16] <= 0
 mccormick1[17]: - u[17] + r[17] <= 0
 mccormick1[18]: - u[18] + r[18] <= 0
 mccormick1[19]: - u[19] + r[19] <= 0
 mccormick1[20]: - u[20] + r[20] <= 0
 mccormick1[21]: - u[21] + r[21] <= 0
 mccormick1[22]: - u[22] + r[22] <= 0
 mccormick1[23]: - u[23] + r[23] <= 0
 mccormick1[24]: - u[24] + r[24] <= 0
 mccormick1[25]: - u[25] + r[25] <= 0
 mccormick1[26]: - u[26] + r[26] <= 0
 mccormick1[27]: - u[27] + r[27] <= 0
 mccormick1[28]: - u[28] + r[28] <= 0
 mccormick1[29]: - u[29] + r[29] <= 0
 mccormick1[30]: - u[30] + r[30] <= 0
 mccormick1[31]: - u[31] + r[31] <= 0
 mccormick1[32]: - u[32] + r[32] <= 0
 mccormick1[33]: - u[33] + r[33] <= 0
 mccormick1[34]: - u[34] + r[34] <= 0
 mccormick1[35]: - u[35] + r[35] <= 0
 mccormick1[36]: - u[36] + r[36] <= 0
 mccormick1[37]: - u[37] + r[37] <= 0
 mccormick1[38]: - u[38] + r[38] <= 0
 mccormick1[39]: - u[39] + r[39] <= 0
 mccormick1[40]: - u[40] + r[40] <= 0
 mccormick1[41]: - u[41] + r[41] <= 0
 mccormick1[42]: - u[42] + r[42] <= 0
 mccormick1[43]: - u[43] + r[43] <= 0
 mccormick1[44]: - u[44] + r[44] <= 0
 mccormick1[45]: - u[45] + r[45] <= 0
 mccormick1[46]: - u[46] + r[46] <= 0
 mccormick1[47]: - u[47] + r[47] <= 0
 mccormick1[48]: - u[48] + r[48] <= 0
 mccormick1[49]: - u[49] + r[49] <= 0
 mccormick1[50]: - u[50] + r[50] <= 0
 mccormick1[51]: - u[51] + r[51] <= 0
 mccormick1[52]: - u[52] + r[52] <= 0
 mccormick1[53]: - u[53] + r[53] <= 0
 mccormick1[54]: - u[54] + r[54] <= 0
 mccormick1[55]: - u[55] + r[55] <= 0
 mccormick1[56]: - u[56] + r[56] <= 0
 mccormick1[57]: - u[57] + r[57] <= 0
 mccormick1[58]: - u[58] + r[58] <= 0
 mccormick1[59]: - u[59] + r[59] <= 0
 mccormick1[60]: - u[60] + r[60] <= 0
 mccormick1[61]: - u[61] + r[61] <= 0
 mccormick1[62]: - u[62] + r[62] <= 0
 mccormick1[63]: - u[63] + r[63] <= 0
 mccormick1[64]: - u[64] + r[64] <= 0
 mccormick1[65]: - u[65] + r[65] <= 0
 mccormick1[66]: - u[66] + r[66] <= 0
 mccormick1[67]: - u[67] + r[67] <= 0
 mccormick1[68]: - u[68] + r[68] <= 0
 mccormick1[69]: - u[69] + r[69] <= 0
 mccormick1[70]: - u[70] + r[70] <= 0
 mccormick1[71]: - u[71] + r[71] <= 0
 mccormick1[72]: - u[72] + r[72] <= 0
 mccormick1[73]: - u[73] + r[73] <= 0
 mccormick1[74]: - u[74] + r[74] <= 0
 mccormick1[75]: - u[75] + r[75] <= 0
 mccormick1[76]: - u[76] + r[76] <= 0
 mccormick1[77]: - u[77] + r[77] <= 0
 mccormick1[78]: - u[78] + r[78] <= 0
 mccormick1[79]: - u[79] + r[79] <= 0
 mccormick1[80]: - u[80] + r[80] <= 0
 mccormick1[81]: - u[81] + r[81] <= 0
 mccormick1[82]: - u[82] + r[82] <= 0
 mccormick1[83]: - u[83] + r[83] <= 0
 mccormick1[84]: - u[84] + r[84] <= 0
 mccormick1[85]: - u[85] + r[85] <= 0
 mccormick1[86]: - u[86] + r[86] <= 0
 mccormick1[87]: - u[87] + r[87] <= 0
 mccormick1[88]: - u[88] + r[88] <= 0
 mccormick1[89]: - u[89] + r[89] <= 0
 mccormick2[0]: - x[0] + r[0] <= 0
 mccormick2[1]: - x[1] + r[1] <= 0
 mccormick2[2]: - x[2] + r[2] <= 0
 mccormick2[3]: - x[3] + r[3] <= 0
 mccormick2[4]: - x[4] + r[4] <= 0
 mccormick2[5]: - x[5] + r[5] <= 0
 mccormick2[6]: - x[6] + r[6] <= 0
 mccormick2[7]: - x[7] + r[7] <= 0
 mccormick2[8]: - x[8] + r[8] <= 0
 mccormick2[9]: - x[9] + r[9] <= 0
 mccormick2[10]: - x[10] + r[10] <= 0
 mccormick2[11]: - x[11] + r[11] <= 0
 mccormick2[12]: - x[12] + r[12] <= 0
 mccormick2[13]: - x[13] + r[13] <= 0
 mccormick2[14]: - x[14] + r[14] <= 0
 mccormick2[15]: - x[15] + r[15] <= 0
 mccormick2[16]: - x[16] + r[16] <= 0
 mccormick2[17]: - x[17] + r[17] <= 0
 mccormick2[18]: - x[18] + r[18] <= 0
 mccormick2[19]: - x[19] + r[19] <= 0
 mccormick2[20]: - x[20] + r[20] <= 0
 mccormick2[21]: - x[21] + r[21] <= 0
 mccormick2[22]: - x[22] + r[22] <= 0
 mccormick2[23]: - x[23] + r[23] <= 0
 mccormick2[24]: - x[24] + r[24] <= 0
 mccormick2[25]: - x[25] + r[25] <= 0
 mccormick2[26]: - x[26] + r[26] <= 0
 mccormick2[27]: - x[27] + r[27] <= 0
 mccormick2[28]: - x[28] + r[28] <= 0
 mccormick2[29]: - x[29] + r[29] <= 0
 mccormick2[30]: - x[30] + r[30] <= 0
 mccormick2[31]: - x[31] + r[31] <= 0
 mccormick2[32]: - x[32] + r[32] <= 0
 mccormick2[33]: - x[33] + r[33] <= 0
 mccormick2[34]: - x[34] + r[34] <= 0
 mccormick2[35]: - x[35] + r[35] <= 0
 mccormick2[36]: - x[36] + r[36] <= 0
 mccormick2[37]: - x[37] + r[37] <= 0
 mccormick2[38]: - x[38] + r[38] <= 0
 mccormick2[39]: - x[39] + r[39] <= 0
 mccormick2[40]: - x[40] + r[40] <= 0
 mccormick2[41]: - x[41] + r[41] <= 0
 mccormick2[42]: - x[42] + r[42] <= 0
 mccormick2[43]: - x[43] + r[43] <= 0
 mccormick2[44]: - x[44] + r[44] <= 0
 mccormick2[45]: - x[45] + r[45] <= 0
 mccormick2[46]: - x[46] + r[46] <= 0
 mccormick2[47]: - x[47] + r[47] <= 0
 mccormick2[48]: - x[48] + r[48] <= 0
 mccormick2[49]: - x[49] + r[49] <= 0
 mccormick2[50]: - x[50] + r[50] <= 0
 mccormick2[51]: - x[51] + r[51] <= 0
 mccormick2[52]: - x[52] + r[52] <= 0
 mccormick2[53]: - x[53] + r[53] <= 0
 mccormick2[54]: - x[54] + r[54] <= 0
 mccormick2[55]: - x[55] + r[55] <= 0
 mccormick2[56]: - x[56] + r[56] <= 0
 mccormick2[57]: - x[57] + r[57] <= 0
 mccormick2[58]: - x[58] + r[58] <= 0
 mccormick2[59]: - x[59] + r[59] <= 0
 mccormick2[60]: - x[60] + r[60] <= 0
 mccormick2[61]: - x[61] + r[61] <= 0
 mccormick2[62]: - x[62] + r[62] <= 0
 mccormick2[63]: - x[63] + r[63] <= 0
 mccormick2[64]: - x[64] + r[64] <= 0
 mccormick2[65]: - x[65] + r[65] <= 0
 mccormick2[66]: - x[66] + r[66] <= 0
 mccormick2[67]: - x[67] + r[67] <= 0
 mccormick2[68]: - x[68] + r[68] <= 0
 mccormick2[69]: - x[69] + r[69] <= 0
 mccormick2[70]: - x[70] + r[70] <= 0
 mccormick2[71]: - x[71] + r[71] <= 0
 mccormick2[72]: - x[72] + r[72] <= 0
 mccormick2[73]: - x[73] + r[73] <= 0
 mccormick2[74]: - x[74] + r[74] <= 0
 mccormick2[75]: - x[75] + r[75] <= 0
 mccormick2[76]: - x[76] + r[76] <= 0
 mccormick2[77]: - x[77] + r[77] <= 0
 mccormick2[78]: - x[78] + r[78] <= 0
 mccormick2[79]: - x[79] + r[79] <= 0
 mccormick2[80]: - x[80] + r[80] <= 0
 mccormick2[81]: - x[81] + r[81] <= 0
 mccormick2[82]: - x[82] + r[82] <= 0
 mccormick2[83]: - x[83] + r[83] <= 0
 mccormick2[84]: - x[84] + r[84] <= 0
 mccormick2[85]: - x[85] + r[85] <= 0
 mccormick2[86]: - x[86] + r[86] <= 0
 mccormick2[87]: - x[87] + r[87] <= 0
 mccormick2[88]: - x[88] + r[88] <= 0
 mccormick2[89]: - x[89] + r[89] <= 0
 mccormick3[0]: x[0] + u[0] - r[0] <= 1
 mccormick3[1]: x[1] + u[1] - r[1] <= 1
 mccormick3[2]: x[2] + u[2] - r[2] <= 1
 mccormick3[3]: x[3] + u[3] - r[3] <= 1
 mccormick3[4]: x[4] + u[4] - r[4] <= 1
 mccormick3[5]: x[5] + u[5] - r[5] <= 1
 mccormick3[6]: x[6] + u[6] - r[6] <= 1
 mccormick3[7]: x[7] + u[7] - r[7] <= 1
 mccormick3[8]: x[8] + u[8] - r[8] <= 1
 mccormick3[9]: x[9] + u[9] - r[9] <= 1
 mccormick3[10]: x[10] + u[10] - r[10] <= 1
 mccormick3[11]: x[11] + u[11] - r[11] <= 1
 mccormick3[12]: x[12] + u[12] - r[12] <= 1
 mccormick3[13]: x[13] + u[13] - r[13] <= 1
 mccormick3[14]: x[14] + u[14] - r[14] <= 1
 mccormick3[15]: x[15] + u[15] - r[15] <= 1
 mccormick3[16]: x[16] + u[16] - r[16] <= 1
 mccormick3[17]: x[17] + u[17] - r[17] <= 1
 mccormick3[18]: x[18] + u[18] - r[18] <= 1
 mccormick3[19]: x[19] + u[19] - r[19] <= 1
 mccormick3[20]: x[20] + u[20] - r[20] <= 1
 mccormick3[21]: x[21] + u[21] - r[21] <= 1
 mccormick3[22]: x[22] + u[22] - r[22] <= 1
 mccormick3[23]: x[23] + u[23] - r[23] <= 1
 mccormick3[24]: x[24] + u[24] - r[24] <= 1
 mccormick3[25]: x[25] + u[25] - r[25] <= 1
 mccormick3[26]: x[26] + u[26] - r[26] <= 1
 mccormick3[27]: x[27] + u[27] - r[27] <= 1
 mccormick3[28]: x[28] + u[28] - r[28] <= 1
 mccormick3[29]: x[29] + u[29] - r[29] <= 1
 mccormick3[30]: x[30] + u[30] - r[30] <= 1
 mccormick3[31]: x[31] + u[31] - r[31] <= 1
 mccormick3[32]: x[32] + u[32] - r[32] <= 1
 mccormick3[33]: x[33] + u[33] - r[33] <= 1
 mccormick3[34]: x[34] + u[34] - r[34] <= 1
 mccormick3[35]: x[35] + u[35] - r[35] <= 1
 mccormick3[36]: x[36] + u[36] - r[36] <= 1
 mccormick3[37]: x[37] + u[37] - r[37] <= 1
 mccormick3[38]: x[38] + u[38] - r[38] <= 1
 mccormick3[39]: x[39] + u[39] - r[39] <= 1
 mccormick3[40]: x[40] + u[40] - r[40] <= 1
 mccormick3[41]: x[41] + u[41] - r[41] <= 1
 mccormick3[42]: x[42] + u[42] - r[42] <= 1
 mccormick3[43]: x[43] + u[43] - r[43] <= 1
 mccormick3[44]: x[44] + u[44] - r[44] <= 1
 mccormick3[45]: x[45] + u[45] - r[45] <= 1
 mccormick3[46]: x[46] + u[46] - r[46] <= 1
 mccormick3[47]: x[47] + u[47] - r[47] <= 1
 mccormick3[48]: x[48] + u[48] - r[48] <= 1
 mccormick3[49]: x[49] + u[49] - r[49] <= 1
 mccormick3[50]: x[50] + u[50] - r[50] <= 1
 mccormick3[51]: x[51] + u[51] - r[51] <= 1
 mccormick3[52]: x[52] + u[52] - r[52] <= 1
 mccormick3[53]: x[53] + u[53] - r[53] <= 1
 mccormick3[54]: x[54] + u[54] - r[54] <= 1
 mccormick3[55]: x[55] + u[55] - r[55] <= 1
 mccormick3[56]: x[56] + u[56] - r[56] <= 1
 mccormick3[57]: x[57] + u[57] - r[57] <= 1
 mccormick3[58]: x[58] + u[58] - r[58] <= 1
 mccormick3[59]: x[59] + u[59] - r[59] <= 1
 mccormick3[60]: x[60] + u[60] - r[60] <= 1
 mccormick3[61]: x[61] + u[61] - r[61] <= 1
 mccormick3[62]: x[62] + u[62] - r[62] <= 1
 mccormick3[63]: x[63] + u[63] - r[63] <= 1
 mccormick3[64]: x[64] + u[64] - r[64] <= 1
 mccormick3[65]: x[65] + u[65] - r[65] <= 1
 mccormick3[66]: x[66] + u[66] - r[66] <= 1
 mccormick3[67]: x[67] + u[67] - r[67] <= 1
 mccormick3[68]: x[68] + u[68] - r[68] <= 1
 mccormick3[69]: x[69] + u[69] - r[69] <= 1
 mccormick3[70]: x[70] + u[70] - r[70] <= 1
 mccormick3[71]: x[71] + u[71] - r[71] <= 1
 mccormick3[72]: x[72] + u[72] - r[72] <= 1
 mccormick3[73]: x[73] + u[73] - r[73] <= 1
 mccormick3[74]: x[74] + u[74] - r[74] <= 1
 mccormick3[75]: x[75] + u[75] - r[75] <= 1
 mccormick3[76]: x[76] + u[76] - r[76] <= 1
 mccormick3[77]: x[77] + u[77] - r[77] <= 1
 mccormick3[78]: x[78] + u[78] - r[78] <= 1
 mccormick3[79]: x[79] + u[79] - r[79] <= 1
 mccormick3[80]: x[80] + u[80] - r[80] <= 1
 mccormick3[81]: x[81] + u[81] - r[81] <= 1
 mccormick3[82]: x[82] + u[82] - r[82] <= 1
 mccormick3[83]: x[83] + u[83] - r[83] <= 1
 mccormick3[84]: x[84] + u[84] - r[84] <= 1
 mccormick3[85]: x[85] + u[85] - r[85] <= 1
 mccormick3[86]: x[86] + u[86] - r[86] <= 1
 mccormick3[87]: x[87] + u[87] - r[87] <= 1
 mccormick3[88]: x[88] + u[88] - r[88] <= 1
 mccormick3[89]: x[89] + u[89] - r[89] <= 1
Bounds
Binaries
 x[0] x[1] x[2] x[3] x[4] x[5] x[6] x[7] x[8] x[9] x[10] x[11] x[12] x[13]
 x[14] x[15] x[16] x[17] x[18] x[19] x[20] x[21] x[22] x[23] x[24] x[25]
 x[26] x[27] x[28] x[29] x[30] x[31] x[32] x[33] x[34] x[35] x[36] x[37]
 x[38] x[39] x[40] x[41] x[42] x[43] x[44] x[45] x[46] x[47] x[48] x[49]
 x[50] x[51] x[52] x[53] x[54] x[55] x[56] x[57] x[58] x[59] x[60] x[61]
 x[62] x[63] x[64] x[65] x[66] x[67] x[68] x[69] x[70] x[71] x[72] x[73]
 x[74] x[75] x[76] x[77] x[78] x[79] x[80] x[81] x[82] x[83] x[84] x[85]
 x[86] x[87] x[88] x[89] u[0] u[1] u[2] u[3] u[4] u[5] u[6] u[7] u[8] u[9]
 u[10] u[11] u[12] u[13] u[14] u[15] u[16] u[17] u[18] u[19] u[20] u[21]
 u[22] u[23] u[24] u[25] u[26] u[27] u[28] u[29] u[30] u[31] u[32] u[33]
 u[34] u[35] u[36] u[37] u[38] u[39] u[40] u[41] u[42] u[43] u[44] u[45]
 u[46] u[47] u[48] u[49] u[50] u[51] u[52] u[53] u[54] u[55] u[56] u[57]
 u[58] u[59] u[60] u[61] u[62] u[63] u[64] u[65] u[66] u[67] u[68] u[69]
 u[70] u[71] u[72] u[73] u[74] u[75] u[76] u[77] u[78] u[79] u[80] u[81]
 u[82] u[83] u[84] u[85] u[86] u[87] u[88] u[89] r[0] r[1] r[2] r[3] r[4]
 r[5] r[6] r[7] r[8] r[9] r[10] r[11] r[12] r[13] r[14] r[15] r[16] r[17]
 r[18] r[19] r[20] r[21] r[22] r[23] r[24] r[25] r[26] r[27] r[28] r[29]
 r[30] r[31] r[32] r[33] r[34] r[35] r[36] r[37] r[38] r[39] r[40] r[41]
 r[42] r[43] r[44] r[45] r[46] r[47] r[48] r[49] r[50] r[51] r[52] r[53]
 r[54] r[55] r[56] r[57] r[58] r[59] r[60] r[61] r[62] r[63] r[64] r[65]
 r[66] r[67] r[68] r[69] r[70] r[71] r[72] r[73] r[74] r[75] r[76] r[77]
 r[78] r[79] r[80] r[81] r[82] r[83] r[84] r[85] r[86] r[87] r[88] r[89]
End
