instances/knapsack/discrete/knapsack_90_18.kp
5371
90
466

26 2.6 31
43 4.3 83
29 2.9 25
78 7.8 89
71 7.1 30
64 6.4 50
84 8.4 70
82 8.2 48
52 5.2 3
21 2.1 59
38 3.8 8
6 0.6 8
75 7.5 32
75 7.5 83
91 9.1 100
31 3.1 45
56 5.6 43
43 4.3 3
4 0.4 71
93 9.3 90
72 7.2 62
78 7.8 24
27 2.7 61
9 0.9 33
31 3.1 10
75 7.5 95
9 0.9 77
34 3.4 44
76 7.6 39
46 4.6 45
24 2.4 78
66 6.6 45
14 1.4 57
20 2.0 4
23 2.3 100
36 3.6 42
83 8.3 6
67 6.7 24
27 2.7 55
85 8.5 80
54 5.4 65
44 4.4 42
61 6.1 62
84 8.4 72
90 9.0 55
21 2.1 16
24 2.4 57
8 0.8 29
98 9.8 89
27 2.7 78
53 5.3 48
23 2.3 27
52 5.2 36
35 3.5 82
55 5.5 53
30 3.0 47
96 9.6 27
77 7.7 81
63 6.3 49
85 8.5 28
11 1.1 69
29 2.9 11
34 3.4 34
25 2.5 54
46 4.6 51
47 4.7 30
59 5.9 90
89 8.9 46
95 9.5 13
100 10.0 54
76 7.6 46
68 6.8 56
45 4.5 94
58 5.8 78
54 5.4 3
99 9.9 51
89 8.9 99
14 1.4 18
67 6.7 61
93 9.3 100
100 10.0 60
60 6.0 51
69 6.9 2
20 2.0 11
76 7.6 94
12 1.2 97
94 9.4 43
83 8.3 44
61 6.1 5
78 7.8 43

81274
408

[2.049565995149827 4.0614342393062 4.144620371031122 0.4408323261164454 2.8061002188219897 4.162097824663557 3.8525594654097906 0.0049047848952667415 2.1327790922058334 0.16741182747462652 2.943210990397451 3.351362147651789 2.9574473341507925 0.872413187834701 3.8519375148438098 1.3852452444838894 0.8400002202142802 1.6301145086508053 2.8694916787762965 1.2962648158318184 3.2816387739117934 2.47270382866665 2.007381257086522 3.330948387497196 0.4728956598272676 3.018950766572051 3.6422333873906716 3.5669488996157055 2.1059515376029996 2.863292677590086 3.351144555545659 1.3364685711899804 1.823369440478945 1.4702337240196754 0.28321520043933585 0.825478370912082 0.9986727616657447 0.9804051742622079 2.9589812895672605 3.760321581970377 0.7121299361114034 0.6821525498050705 1.0447234273860708 0.9910067876126375 3.945165265454705 1.2501138872647681 1.5057753548246646 1.9810694220422909 4.330665861951987 3.874995565004742 0.7007509457747981 2.7978027857377814 1.3319862017339512 1.271241730267977 0.461566074597127 3.0541142002071386 2.1779476496206036 1.4698862172655753 2.6542675150348036 2.9417301770966784 1.2425727339473969 1.4699057273346128 1.271238152185349 3.518552951625395 1.3165299882166475 3.2160850957527956 1.7973910644363575 2.0806809033101787 2.082467333138353 0.6103835762912614 0.27304721446825303 1.0838674454830115 3.123084289656648 3.897993511861997 2.0978939398872303 2.7531355296139526 3.668143143646925 1.609878235228475 0.37057955554588473 0.7550443568384425 2.87916642215354 1.3151730031613214 0.4138710627813979 2.8006608532175363 2.14157293615092 3.846013516877182 2.697768054460839 1.1945831250824632 2.238148173286841 2.994011192310984]

[32 32 70 23 72 82 37 44 13 14 24 23 92 100 33 21 45 32 1 34 1 24 88 95 37 12 50 64 10 27 70 60 64 1 80 89 60 93 40 59 87 38 30 86 91 23 74 34 23 88 19 64 81 84 61 20 9 3 56 18 73 67 80 91 16 36 73 39 76 62 26 94 50 51 12 49 23 55 29 79 30 18 47 58 18 14 52 8 90 35]
